(set-info :source |printed by MathSAT|)
(declare-fun call__main_.call_controleur.retard.next () Bool)
(declare-fun call__main_.call_hypothese.ok () Bool)
(declare-fun call__main_.call_hypothese2.ite4.next () Int)
(declare-fun call__main_.call_hypothese.c () Int)
(declare-fun call__main_.flby.next () Int)
(declare-fun avance0 () Bool)
(declare-fun call__main_.call_hypothese.ite.next () Bool)
(declare-fun param__S_.next () Bool)
(declare-fun call__main_.retard1.next () Bool)
(declare-fun call__main_.ast () Bool)
(declare-fun call__main_.call_hypothese2.ite.next () Bool)
(declare-fun call__main_.diff1.next () Int)
(declare-fun param__B0_.next () Bool)
(declare-fun call__main_.call_controleur2.flby2.next () Bool)
(declare-fun call__main_.call_controleur.retard () Bool)
(declare-fun avance1.next () Bool)
(declare-fun avance1 () Bool)
(declare-fun call__main_.flby3 () Int)
(declare-fun call__main_.call_hypothese2.flby.next () Bool)
(declare-fun call__main_.retard1 () Bool)
(declare-fun call__main_.ast.next () Bool)
(declare-fun call__main_.call_controleur2.flby () Bool)
(declare-fun call__main_.call_controleur2.avance.next () Bool)
(declare-fun nB1 () Int)
(declare-fun flby.next () Bool)
(declare-fun call__main_.nB1.next () Int)
(declare-fun _OK_ () Bool)
(declare-fun call__main_.call_hypothese2.flby () Bool)
(declare-fun call__main_.call_controleur.avance () Bool)
(declare-fun call__main_.nB0.next () Int)
(declare-fun call__main_.call_controleur2.flby2 () Bool)
(declare-fun call__main_.call_controleur.diff.next () Int)
(declare-fun call_Sofar.Sofar.next () Bool)
(declare-fun call__main_.flby3.next () Int)
(declare-fun nB0 () Int)
(declare-fun call__main_.call_hypothese.flby () Bool)
(declare-fun call__main_.call_controleur2.diff () Int)
(declare-fun call__main_.call_hypothese.ite3.next () Int)
(declare-fun call__main_.call_hypothese2.ok.next () Bool)
(declare-fun call__main_._H1_.next () Bool)
(declare-fun call__main_.retard0.next () Bool)
(declare-fun call__main_._H1_ () Bool)
(declare-fun nS () Int)
(declare-fun call__main_.diff0.next () Int)
(declare-fun call__main_.call_hypothese2.ite3.next () Int)
(declare-fun diff1 () Int)
(declare-fun call__main_.nB0 () Int)
(declare-fun call__main_.flby2.next () Int)
(declare-fun call__main_.call_controleur2.retard.next () Bool)
(declare-fun call__main_.call_hypothese2.c () Int)
(declare-fun call__main_.call_controleur.diff () Int)
(declare-fun nS.next () Int)
(declare-fun call__main_.ite.next () Int)
(declare-fun call__main_.call_hypothese.flby2 () Int)
(declare-fun call__main_.call_controleur.avance.next () Bool)
(declare-fun diff0 () Int)
(declare-fun call__main_.call_hypothese2.flby2 () Int)
(declare-fun call__main_.call_hypothese2.flby2.next () Int)
(declare-fun call__main_.call_hypothese.ite2.next () Bool)
(declare-fun call__main_.call_hypothese2.c.next () Int)
(declare-fun diff1.next () Int)
(declare-fun flby () Bool)
(declare-fun call__main_.diff1 () Int)
(declare-fun retard0.next () Bool)
(declare-fun call_Sofar.flby () Bool)
(declare-fun call_Sofar.flby.next () Bool)
(declare-fun call__main_.avance1 () Bool)
(declare-fun call__main_.call_hypothese.flby2.next () Int)
(declare-fun call__main_.call_controleur2.ite.next () Bool)
(declare-fun call__main_.flby () Int)
(declare-fun call__main_.call_controleur.flby2 () Bool)
(declare-fun param__B1_.next () Bool)
(declare-fun call__main_.call_hypothese2.ok () Bool)
(declare-fun avance0.next () Bool)
(declare-fun call__main_.nS.next () Int)
(declare-fun call_Sofar.Sofar () Bool)
(declare-fun call__main_.flby2 () Int)
(declare-fun call__main_.call_controleur.ite2.next () Bool)
(declare-fun call__main_.nS () Int)
(declare-fun call__main_.call_hypothese2.ite2.next () Bool)
(declare-fun call__main_.call_controleur2.flby.next () Bool)
(declare-fun call__main_.call_controleur.flby () Bool)
(declare-fun nB0.next () Int)
(declare-fun call__main_.retard0 () Bool)
(declare-fun call__main_.call_controleur2.avance () Bool)
(declare-fun call__main_._H0_.next () Bool)
(declare-fun call__main_.call_controleur2.retard () Bool)
(declare-fun call__main_.call_hypothese.flby.next () Bool)
(declare-fun call__main_._H0_ () Bool)
(declare-fun call__main_.diff0 () Int)
(declare-fun call__main_.call_hypothese.c.next () Int)
(declare-fun diff0.next () Int)
(declare-fun call__main_.call_controleur.flby.next () Bool)
(declare-fun call__main_.ite2.next () Int)
(declare-fun call__main_.call_controleur2.ite2.next () Bool)
(declare-fun ast () Bool)
(declare-fun _OK_.next () Bool)
(declare-fun call__main_.call_controleur2.diff.next () Int)
(declare-fun retard1.next () Bool)
(declare-fun nB1.next () Int)
(declare-fun call__main_.call_hypothese.ite4.next () Int)
(declare-fun call__main_.nB1 () Int)
(declare-fun retard0 () Bool)
(declare-fun call__main_.avance1.next () Bool)
(declare-fun call__main_.call_controleur.flby2.next () Bool)
(declare-fun ast.next () Bool)
(declare-fun call__main_.avance0.next () Bool)
(declare-fun call__main_.call_hypothese.ok.next () Bool)
(declare-fun retard1 () Bool)
(declare-fun call__main_.avance0 () Bool)
(declare-fun call__main_.call_controleur.ite.next () Bool)
(declare-fun call__main_.ite3.next () Int)
(define-fun .def_924 () Bool (= call_Sofar.flby.next call_Sofar.Sofar.next))
(define-fun .def_921 () Bool (= call__main_.call_controleur2.flby2.next call__main_.call_controleur2.retard.next))
(define-fun .def_919 () Bool (= call__main_.call_controleur2.flby.next call__main_.call_controleur2.avance.next))
(define-fun .def_912 () Int (* (- 1) call__main_.nB1.next))
(define-fun .def_915 () Int (+ .def_912 call__main_.nS.next))
(define-fun .def_916 () Int (+ call__main_.call_controleur2.diff.next .def_915))
(define-fun .def_917 () Bool (= .def_916 0))
(define-fun .def_910 () Bool (= call__main_.call_controleur.flby2.next call__main_.call_controleur.retard.next))
(define-fun .def_908 () Bool (= call__main_.call_controleur.flby.next call__main_.call_controleur.avance.next))
(define-fun .def_901 () Int (* (- 1) call__main_.nB0.next))
(define-fun .def_904 () Int (+ .def_901 call__main_.nS.next))
(define-fun .def_905 () Int (+ call__main_.call_controleur.diff.next .def_904))
(define-fun .def_906 () Bool (= .def_905 0))
(define-fun .def_899 () Bool (= call__main_.call_hypothese2.flby2.next call__main_.call_hypothese2.c.next))
(define-fun .def_896 () Bool (= call__main_.call_hypothese2.flby.next call__main_.call_hypothese2.ok.next))
(define-fun .def_894 () Bool (= call__main_.call_hypothese.flby2.next call__main_.call_hypothese.c.next))
(define-fun .def_891 () Bool (= call__main_.call_hypothese.flby.next call__main_.call_hypothese.ok.next))
(define-fun .def_889 () Bool (= call__main_._H1_.next call__main_.call_hypothese2.ok.next))
(define-fun .def_886 () Bool (= call__main_._H0_.next call__main_.call_hypothese.ok.next))
(define-fun .def_883 () Bool (= call__main_.retard1.next call__main_.call_controleur2.retard.next))
(define-fun .def_880 () Bool (= call__main_.retard0.next call__main_.call_controleur.retard.next))
(define-fun .def_877 () Bool (= call__main_.avance1.next call__main_.call_controleur2.avance.next))
(define-fun .def_874 () Bool (= call__main_.avance0.next call__main_.call_controleur.avance.next))
(define-fun .def_871 () Bool (= call__main_.call_controleur2.diff.next call__main_.diff1.next))
(define-fun .def_869 () Bool (= call__main_.call_controleur.diff.next call__main_.diff0.next))
(define-fun .def_867 () Bool (= call__main_.flby3.next call__main_.nS.next))
(define-fun .def_865 () Bool (= call__main_.flby2.next call__main_.nB1.next))
(define-fun .def_863 () Bool (= call__main_.flby.next call__main_.nB0.next))
(define-fun .def_860 () Bool (and call__main_._H0_.next call__main_._H1_.next))
(define-fun .def_861 () Bool (= call__main_.ast.next .def_860))
(define-fun .def_856 () Bool (= ast.next call__main_.ast.next))
(define-fun .def_853 () Bool (= retard1.next call__main_.retard1.next))
(define-fun .def_849 () Bool (= retard0.next call__main_.retard0.next))
(define-fun .def_845 () Bool (= call__main_.avance1.next avance1.next))
(define-fun .def_842 () Bool (= call__main_.avance0.next avance0.next))
(define-fun .def_839 () Bool (= diff1.next call__main_.diff1.next))
(define-fun .def_835 () Bool (= diff0.next call__main_.diff0.next))
(define-fun .def_831 () Bool (= nS.next call__main_.nS.next))
(define-fun .def_827 () Bool (= nB1.next call__main_.nB1.next))
(define-fun .def_823 () Bool (= nB0.next call__main_.nB0.next))
(define-fun .def_820 () Bool (= flby.next _OK_.next))
(define-fun .def_824 () Bool (and .def_820 .def_823))
(define-fun .def_828 () Bool (and .def_824 .def_827))
(define-fun .def_832 () Bool (and .def_828 .def_831))
(define-fun .def_836 () Bool (and .def_832 .def_835))
(define-fun .def_840 () Bool (and .def_836 .def_839))
(define-fun .def_843 () Bool (and .def_840 .def_842))
(define-fun .def_846 () Bool (and .def_843 .def_845))
(define-fun .def_850 () Bool (and .def_846 .def_849))
(define-fun .def_854 () Bool (and .def_850 .def_853))
(define-fun .def_857 () Bool (and .def_854 .def_856))
(define-fun .def_862 () Bool (and .def_857 .def_861))
(define-fun .def_864 () Bool (and .def_862 .def_863))
(define-fun .def_866 () Bool (and .def_864 .def_865))
(define-fun .def_868 () Bool (and .def_866 .def_867))
(define-fun .def_870 () Bool (and .def_868 .def_869))
(define-fun .def_872 () Bool (and .def_870 .def_871))
(define-fun .def_875 () Bool (and .def_872 .def_874))
(define-fun .def_878 () Bool (and .def_875 .def_877))
(define-fun .def_881 () Bool (and .def_878 .def_880))
(define-fun .def_884 () Bool (and .def_881 .def_883))
(define-fun .def_887 () Bool (and .def_884 .def_886))
(define-fun .def_890 () Bool (and .def_887 .def_889))
(define-fun .def_892 () Bool (and .def_890 .def_891))
(define-fun .def_895 () Bool (and .def_892 .def_894))
(define-fun .def_897 () Bool (and .def_895 .def_896))
(define-fun .def_900 () Bool (and .def_897 .def_899))
(define-fun .def_907 () Bool (and .def_900 .def_906))
(define-fun .def_909 () Bool (and .def_907 .def_908))
(define-fun .def_911 () Bool (and .def_909 .def_910))
(define-fun .def_918 () Bool (and .def_911 .def_917))
(define-fun .def_920 () Bool (and .def_918 .def_919))
(define-fun .def_922 () Bool (and .def_920 .def_921))
(define-fun .def_925 () Bool (and .def_922 .def_924))
(define-fun .def_622 () Bool (= call_Sofar.flby call_Sofar.Sofar))
(define-fun .def_619 () Bool (= call__main_.call_controleur2.flby2 call__main_.call_controleur2.retard))
(define-fun .def_617 () Bool (= call__main_.call_controleur2.flby call__main_.call_controleur2.avance))
(define-fun .def_612 () Int (* (- 1) call__main_.call_controleur2.diff))
(define-fun .def_600 () Int (* (- 1) call__main_.nS))
(define-fun .def_613 () Int (+ .def_600 .def_612))
(define-fun .def_614 () Int (+ call__main_.nB1 .def_613))
(define-fun .def_615 () Bool (= .def_614 0))
(define-fun .def_607 () Bool (= call__main_.call_controleur.flby2 call__main_.call_controleur.retard))
(define-fun .def_605 () Bool (= call__main_.call_controleur.flby call__main_.call_controleur.avance))
(define-fun .def_599 () Int (* (- 1) call__main_.call_controleur.diff))
(define-fun .def_601 () Int (+ .def_600 .def_599))
(define-fun .def_602 () Int (+ call__main_.nB0 .def_601))
(define-fun .def_603 () Bool (= .def_602 0))
(define-fun .def_594 () Bool (= call__main_.call_hypothese2.flby2 call__main_.call_hypothese2.c))
(define-fun .def_591 () Bool (= call__main_.call_hypothese2.flby call__main_.call_hypothese2.ok))
(define-fun .def_589 () Bool (= call__main_.call_hypothese.flby2 call__main_.call_hypothese.c))
(define-fun .def_586 () Bool (= call__main_.call_hypothese.flby call__main_.call_hypothese.ok))
(define-fun .def_584 () Bool (= call__main_._H1_ call__main_.call_hypothese2.ok))
(define-fun .def_581 () Bool (= call__main_._H0_ call__main_.call_hypothese.ok))
(define-fun .def_578 () Bool (= call__main_.retard1 call__main_.call_controleur2.retard))
(define-fun .def_575 () Bool (= call__main_.retard0 call__main_.call_controleur.retard))
(define-fun .def_572 () Bool (= call__main_.avance1 call__main_.call_controleur2.avance))
(define-fun .def_569 () Bool (= call__main_.avance0 call__main_.call_controleur.avance))
(define-fun .def_566 () Bool (= call__main_.diff1 call__main_.call_controleur2.diff))
(define-fun .def_563 () Bool (= call__main_.diff0 call__main_.call_controleur.diff))
(define-fun .def_560 () Bool (= call__main_.flby3 call__main_.nS))
(define-fun .def_558 () Bool (= call__main_.flby2 call__main_.nB1))
(define-fun .def_556 () Bool (= call__main_.flby call__main_.nB0))
(define-fun .def_553 () Bool (and call__main_._H0_ call__main_._H1_))
(define-fun .def_554 () Bool (= call__main_.ast .def_553))
(define-fun .def_549 () Bool (= ast call__main_.ast))
(define-fun .def_546 () Bool (= retard1 call__main_.retard1))
(define-fun .def_542 () Bool (= retard0 call__main_.retard0))
(define-fun .def_538 () Bool (= avance1 call__main_.avance1))
(define-fun .def_534 () Bool (= avance0 call__main_.avance0))
(define-fun .def_530 () Bool (= diff1 call__main_.diff1))
(define-fun .def_526 () Bool (= diff0 call__main_.diff0))
(define-fun .def_522 () Bool (= nS call__main_.nS))
(define-fun .def_518 () Bool (= nB1 call__main_.nB1))
(define-fun .def_514 () Bool (= nB0 call__main_.nB0))
(define-fun .def_511 () Bool (= flby _OK_))
(define-fun .def_515 () Bool (and .def_511 .def_514))
(define-fun .def_519 () Bool (and .def_515 .def_518))
(define-fun .def_523 () Bool (and .def_519 .def_522))
(define-fun .def_527 () Bool (and .def_523 .def_526))
(define-fun .def_531 () Bool (and .def_527 .def_530))
(define-fun .def_535 () Bool (and .def_531 .def_534))
(define-fun .def_539 () Bool (and .def_535 .def_538))
(define-fun .def_543 () Bool (and .def_539 .def_542))
(define-fun .def_547 () Bool (and .def_543 .def_546))
(define-fun .def_550 () Bool (and .def_547 .def_549))
(define-fun .def_555 () Bool (and .def_550 .def_554))
(define-fun .def_557 () Bool (and .def_555 .def_556))
(define-fun .def_559 () Bool (and .def_557 .def_558))
(define-fun .def_561 () Bool (and .def_559 .def_560))
(define-fun .def_564 () Bool (and .def_561 .def_563))
(define-fun .def_567 () Bool (and .def_564 .def_566))
(define-fun .def_570 () Bool (and .def_567 .def_569))
(define-fun .def_573 () Bool (and .def_570 .def_572))
(define-fun .def_576 () Bool (and .def_573 .def_575))
(define-fun .def_579 () Bool (and .def_576 .def_578))
(define-fun .def_582 () Bool (and .def_579 .def_581))
(define-fun .def_585 () Bool (and .def_582 .def_584))
(define-fun .def_587 () Bool (and .def_585 .def_586))
(define-fun .def_590 () Bool (and .def_587 .def_589))
(define-fun .def_592 () Bool (and .def_590 .def_591))
(define-fun .def_595 () Bool (and .def_592 .def_594))
(define-fun .def_604 () Bool (and .def_595 .def_603))
(define-fun .def_606 () Bool (and .def_604 .def_605))
(define-fun .def_608 () Bool (and .def_606 .def_607))
(define-fun .def_616 () Bool (and .def_608 .def_615))
(define-fun .def_618 () Bool (and .def_616 .def_617))
(define-fun .def_620 () Bool (and .def_618 .def_619))
(define-fun .def_623 () Bool (and .def_620 .def_622))
(define-fun .def_926 () Bool (and .def_623 .def_925))
(define-fun .def_815 () Bool (and call_Sofar.Sofar ast.next))
(define-fun .def_817 () Bool (= .def_815 call_Sofar.flby.next))
(define-fun .def_812 () Bool (= call__main_.call_controleur2.ite2.next call__main_.call_controleur2.flby2.next))
(define-fun .def_809 () Bool (= call__main_.call_controleur2.ite.next call__main_.call_controleur2.flby.next))
(define-fun .def_802 () Bool (<= 0 call__main_.call_controleur2.diff.next))
(define-fun .def_803 () Bool (not .def_802))
(define-fun .def_804 () Bool (= call__main_.call_controleur2.ite2.next .def_803))
(define-fun .def_801 () Bool (not call__main_.call_controleur2.retard))
(define-fun .def_805 () Bool (or .def_801 .def_804))
(define-fun .def_796 () Bool (<= call__main_.call_controleur2.diff.next (- 10)))
(define-fun .def_798 () Bool (= .def_796 call__main_.call_controleur2.ite2.next))
(define-fun .def_799 () Bool (or call__main_.call_controleur2.retard .def_798))
(define-fun .def_792 () Bool (<= 10 call__main_.call_controleur2.diff.next))
(define-fun .def_793 () Bool (= call__main_.call_controleur2.ite.next .def_792))
(define-fun .def_794 () Bool (or call__main_.call_controleur2.avance .def_793))
(define-fun .def_787 () Bool (<= call__main_.call_controleur2.diff.next 0))
(define-fun .def_788 () Bool (not .def_787))
(define-fun .def_790 () Bool (= .def_788 call__main_.call_controleur2.ite.next))
(define-fun .def_785 () Bool (not call__main_.call_controleur2.avance))
(define-fun .def_791 () Bool (or .def_785 .def_790))
(define-fun .def_795 () Bool (and .def_791 .def_794))
(define-fun .def_800 () Bool (and .def_795 .def_799))
(define-fun .def_806 () Bool (and .def_800 .def_805))
(define-fun .def_783 () Bool (= call__main_.call_controleur.ite2.next call__main_.call_controleur.flby2.next))
(define-fun .def_780 () Bool (= call__main_.call_controleur.ite.next call__main_.call_controleur.flby.next))
(define-fun .def_773 () Bool (<= 0 call__main_.call_controleur.diff.next))
(define-fun .def_774 () Bool (not .def_773))
(define-fun .def_775 () Bool (= call__main_.call_controleur.ite2.next .def_774))
(define-fun .def_772 () Bool (not call__main_.call_controleur.retard))
(define-fun .def_776 () Bool (or .def_772 .def_775))
(define-fun .def_767 () Bool (<= call__main_.call_controleur.diff.next (- 10)))
(define-fun .def_769 () Bool (= .def_767 call__main_.call_controleur.ite2.next))
(define-fun .def_770 () Bool (or call__main_.call_controleur.retard .def_769))
(define-fun .def_763 () Bool (<= 10 call__main_.call_controleur.diff.next))
(define-fun .def_764 () Bool (= call__main_.call_controleur.ite.next .def_763))
(define-fun .def_765 () Bool (or call__main_.call_controleur.avance .def_764))
(define-fun .def_758 () Bool (<= call__main_.call_controleur.diff.next 0))
(define-fun .def_759 () Bool (not .def_758))
(define-fun .def_761 () Bool (= .def_759 call__main_.call_controleur.ite.next))
(define-fun .def_756 () Bool (not call__main_.call_controleur.avance))
(define-fun .def_762 () Bool (or .def_756 .def_761))
(define-fun .def_766 () Bool (and .def_762 .def_765))
(define-fun .def_771 () Bool (and .def_766 .def_770))
(define-fun .def_777 () Bool (and .def_771 .def_776))
(define-fun .def_754 () Bool (= call__main_.call_hypothese2.ite4.next call__main_.call_hypothese2.flby2.next))
(define-fun .def_749 () Bool (and call__main_.call_hypothese2.ite2.next call__main_.call_hypothese2.ite.next))
(define-fun .def_751 () Bool (= .def_749 call__main_.call_hypothese2.flby.next))
(define-fun .def_634 () Bool (<= 9 call__main_.call_hypothese2.c))
(define-fun .def_747 () Bool (or call__main_.call_hypothese2.ite2.next .def_634))
(define-fun .def_745 () Bool (= call__main_.call_hypothese.ite4.next call__main_.call_hypothese.flby2.next))
(define-fun .def_740 () Bool (and call__main_.call_hypothese.ite2.next call__main_.call_hypothese.ite.next))
(define-fun .def_742 () Bool (= .def_740 call__main_.call_hypothese.flby.next))
(define-fun .def_659 () Bool (<= 9 call__main_.call_hypothese.c))
(define-fun .def_738 () Bool (or call__main_.call_hypothese.ite2.next .def_659))
(define-fun .def_736 () Bool (= call__main_.ite3.next call__main_.flby3.next))
(define-fun .def_733 () Bool (= call__main_.ite2.next call__main_.flby2.next))
(define-fun .def_730 () Bool (= call__main_.ite.next call__main_.flby.next))
(define-fun .def_727 () Bool (or call__main_.retard1 call__main_.call_hypothese2.ite.next))
(define-fun .def_725 () Bool (or call__main_.retard0 call__main_.call_hypothese.ite.next))
(define-fun .def_718 () Bool (and call__main_.avance1 call__main_.avance1.next))
(define-fun .def_721 () Bool (not .def_718))
(define-fun .def_720 () Bool (= call__main_.call_hypothese2.ite3.next call__main_.call_hypothese2.ite4.next))
(define-fun .def_722 () Bool (or .def_720 .def_721))
(define-fun .def_716 () Bool (= call__main_.call_hypothese2.ite4.next 0))
(define-fun .def_719 () Bool (or .def_716 .def_718))
(define-fun .def_723 () Bool (and .def_719 .def_722))
(define-fun .def_708 () Bool (and call__main_.avance0 call__main_.avance0.next))
(define-fun .def_711 () Bool (not .def_708))
(define-fun .def_710 () Bool (= call__main_.call_hypothese.ite3.next call__main_.call_hypothese.ite4.next))
(define-fun .def_712 () Bool (or .def_710 .def_711))
(define-fun .def_706 () Bool (= call__main_.call_hypothese.ite4.next 0))
(define-fun .def_709 () Bool (or .def_706 .def_708))
(define-fun .def_713 () Bool (and .def_709 .def_712))
(define-fun .def_699 () Int (* (- 1) nB1))
(define-fun .def_700 () Int (+ nB0 .def_699))
(define-fun .def_701 () Bool (<= .def_700 30))
(define-fun .def_703 () Bool (= .def_701 flby.next))
(define-fun .def_693 () Bool (= call__main_.nS call__main_.ite3.next))
(define-fun .def_694 () Bool (or param__S_.next .def_693))
(define-fun .def_688 () Int (* (- 1) call__main_.ite3.next))
(define-fun .def_689 () Int (+ call__main_.nS .def_688))
(define-fun .def_690 () Bool (= .def_689 (- 1)))
(define-fun .def_677 () Bool (not param__S_.next))
(define-fun .def_691 () Bool (or .def_677 .def_690))
(define-fun .def_684 () Bool (not call__main_.retard0))
(define-fun .def_683 () Bool (= .def_677 call__main_.call_hypothese.ite.next))
(define-fun .def_685 () Bool (or .def_683 .def_684))
(define-fun .def_680 () Bool (not call__main_.retard1))
(define-fun .def_679 () Bool (= .def_677 call__main_.call_hypothese2.ite.next))
(define-fun .def_681 () Bool (or .def_679 .def_680))
(define-fun .def_686 () Bool (and .def_681 .def_685))
(define-fun .def_692 () Bool (and .def_686 .def_691))
(define-fun .def_695 () Bool (and .def_692 .def_694))
(define-fun .def_672 () Bool (= call__main_.nB0 call__main_.ite.next))
(define-fun .def_673 () Bool (or param__B0_.next .def_672))
(define-fun .def_667 () Int (* (- 1) call__main_.ite.next))
(define-fun .def_668 () Int (+ call__main_.nB0 .def_667))
(define-fun .def_669 () Bool (= .def_668 (- 1)))
(define-fun .def_655 () Bool (not param__B0_.next))
(define-fun .def_670 () Bool (or .def_655 .def_669))
(define-fun .def_663 () Bool (= call__main_.call_hypothese.c call__main_.call_hypothese.ite3.next))
(define-fun .def_664 () Bool (or param__B0_.next .def_663))
(define-fun .def_660 () Bool (not .def_659))
(define-fun .def_658 () Bool (= .def_655 call__main_.call_hypothese.ite2.next))
(define-fun .def_661 () Bool (or .def_658 .def_660))
(define-fun .def_651 () Int (* (- 1) call__main_.call_hypothese.ite3.next))
(define-fun .def_652 () Int (+ call__main_.call_hypothese.c .def_651))
(define-fun .def_653 () Bool (= .def_652 1))
(define-fun .def_656 () Bool (or .def_653 .def_655))
(define-fun .def_662 () Bool (and .def_656 .def_661))
(define-fun .def_665 () Bool (and .def_662 .def_664))
(define-fun .def_671 () Bool (and .def_665 .def_670))
(define-fun .def_674 () Bool (and .def_671 .def_673))
(define-fun .def_647 () Bool (= call__main_.nB1 call__main_.ite2.next))
(define-fun .def_648 () Bool (or param__B1_.next .def_647))
(define-fun .def_642 () Int (* (- 1) call__main_.ite2.next))
(define-fun .def_643 () Int (+ call__main_.nB1 .def_642))
(define-fun .def_644 () Bool (= .def_643 (- 1)))
(define-fun .def_630 () Bool (not param__B1_.next))
(define-fun .def_645 () Bool (or .def_630 .def_644))
(define-fun .def_638 () Bool (= call__main_.call_hypothese2.c call__main_.call_hypothese2.ite3.next))
(define-fun .def_639 () Bool (or param__B1_.next .def_638))
(define-fun .def_635 () Bool (not .def_634))
(define-fun .def_633 () Bool (= .def_630 call__main_.call_hypothese2.ite2.next))
(define-fun .def_636 () Bool (or .def_633 .def_635))
(define-fun .def_626 () Int (* (- 1) call__main_.call_hypothese2.ite3.next))
(define-fun .def_627 () Int (+ call__main_.call_hypothese2.c .def_626))
(define-fun .def_628 () Bool (= .def_627 1))
(define-fun .def_631 () Bool (or .def_628 .def_630))
(define-fun .def_637 () Bool (and .def_631 .def_636))
(define-fun .def_640 () Bool (and .def_637 .def_639))
(define-fun .def_646 () Bool (and .def_640 .def_645))
(define-fun .def_649 () Bool (and .def_646 .def_648))
(define-fun .def_675 () Bool (and .def_649 .def_674))
(define-fun .def_696 () Bool (and .def_675 .def_695))
(define-fun .def_704 () Bool (and .def_696 .def_703))
(define-fun .def_714 () Bool (and .def_704 .def_713))
(define-fun .def_724 () Bool (and .def_714 .def_723))
(define-fun .def_726 () Bool (and .def_724 .def_725))
(define-fun .def_728 () Bool (and .def_726 .def_727))
(define-fun .def_731 () Bool (and .def_728 .def_730))
(define-fun .def_734 () Bool (and .def_731 .def_733))
(define-fun .def_737 () Bool (and .def_734 .def_736))
(define-fun .def_739 () Bool (and .def_737 .def_738))
(define-fun .def_743 () Bool (and .def_739 .def_742))
(define-fun .def_746 () Bool (and .def_743 .def_745))
(define-fun .def_748 () Bool (and .def_746 .def_747))
(define-fun .def_752 () Bool (and .def_748 .def_751))
(define-fun .def_755 () Bool (and .def_752 .def_754))
(define-fun .def_778 () Bool (and .def_755 .def_777))
(define-fun .def_781 () Bool (and .def_778 .def_780))
(define-fun .def_784 () Bool (and .def_781 .def_783))
(define-fun .def_807 () Bool (and .def_784 .def_806))
(define-fun .def_810 () Bool (and .def_807 .def_809))
(define-fun .def_813 () Bool (and .def_810 .def_812))
(define-fun .def_818 () Bool (and .def_813 .def_817))
(define-fun .def_927 () Bool (and .def_818 .def_926))
(assert .def_927)
